submitit INFO (2023-04-29 16:25:38,865) - Starting with JobEnvironment(job_id=27468, hostname=cpunode3, local_rank=2(5), node=0(1), global_rank=2(5))
submitit INFO (2023-04-29 16:25:38,866) - Loading pickle: /h/30/pashootan/Matrix-Mult-CP/src/../logs/2x2x2_4_Apr29_16:25:37/27468_submitted.pkl
 ! --------------------------------------------------- CP Optimizer 22.1.1.0 --
 ! Satisfiability problem - 48 variables, 144 constraints
 ! TimeLimit            = 172800
 ! Workers              = 8
 ! LogPeriod            = 10000000
 ! RandomSeed           = 5193
 ! Initial process time : 0.02s (0.02s extraction + 0.00s propagation)
 !  . Log search space  : 76.1 (before), 76.1 (after)
 !  . Memory usage      : 437.9 kB (before), 437.9 kB (after)
 ! Using parallel search with 8 workers.
 ! ----------------------------------------------------------------------------
 !               Branches  Non-fixed    W       Branch decision
 ! ----------------------------------------------------------------------------
 ! Search completed, model has no solution.
 ! ----------------------------------------------------------------------------
 ! Number of branches     : 42072073
 ! Number of fails        : 20805722
 ! Total memory usage     : 35.0 MB (34.9 MB CP Optimizer + 0.0 MB Concert)
 ! Time spent in solve    : 69.31s (69.29s engine + 0.02s extraction)
 ! Search speed (br. / s) : 607188.2
 ! ----------------------------------------------------------------------------
Infeasible
Saving stats to: /h/30/pashootan/Matrix-Mult-CP/logs/2x2x2_4_Apr29_16:25:37/27468_2_stats.csv
submitit INFO (2023-04-29 16:26:48,809) - Job completed successfully
